proyfinal/src/viki/013/experimentInOfficeAgust.take6.output/6d547b21-93f5-4126-a275-aeab19fb0621.als.dat
{'cnf.clauses': '118081',
 'cnf.totvars': '69608',
 'conflict literals': '882',
 'conflicts': '130',
 'decisions': '6893',
 'memused.mb': '15.76',
 'outcome': 'UNSAT',
 'propagations': '164790',
 'restarts': '2',
 'solver.msecs': 36,
 'task.msecs': 84}
