proyfinal/src/viki/013/experimentInOfficeAgust.take6.output/6d547b21-93f5-4126-a275-aeab19fb0621.als.out
Reading from standard input... Use '--help' for help.
============================[ Problem Statistics ]=============================
|                                                                             |
|  Number of variables:         69608                                         |
|  Number of clauses:          118081                                         |
|  Parse time:                   0.02 s                                       |
|                                                                             |
============================[ Search Statistics ]==============================
| Conflicts |          ORIGINAL         |          LEARNT          | Progress |
|           |    Vars  Clauses Literals |    Limit  Clauses Lit/Cl |          |
===============================================================================
|       100 |   55650    78025   193313 |    28609       97      8 | 20.052 % |
===============================================================================
restarts              : 2
conflicts             : 130            (3552 /sec)
decisions             : 6893           (0.00 % random) (188338 /sec)
propagations          : 164790         (4502582 /sec)
conflict literals     : 882            (21.32 % deleted)
Memory used           : 15.76 MB
CPU time              : 0.036599 s

UNSATISFIABLE
